N: 1000
R: 1000
Capacities: 249752
------
Total value: 249752
Total weight: 249752
Packed Items: [0, 1, 2, 3, 4, 5, 6, 7, 8, 9, 10, 11, 12, 13, 14, 15, 16, 17, 18, 19, 20, 21, 22, 23, 24, 25, 26, 27, 28, 29, 30, 31, 32, 33, 34, 35, 36, 37, 38, 39, 40, 41, 42, 43, 44, 45, 46, 47, 48, 49, 50, 51, 52, 53, 54, 55, 56, 57, 58, 59, 60, 61, 62, 63, 64, 65, 66, 67, 68, 69, 70, 71, 72, 73, 74, 75, 76, 77, 78, 79, 80, 81, 82, 83, 84, 85, 86, 87, 88, 89, 90, 91, 92, 93, 94, 95, 96, 97, 98, 99, 100, 101, 102, 103, 104, 105, 106, 107, 108, 109, 110, 111, 112, 113, 114, 115, 116, 117, 118, 119, 120, 121, 122, 123, 124, 125, 126, 127, 128, 129, 130, 131, 132, 133, 134, 135, 136, 137, 138, 139, 140, 141, 142, 143, 144, 145, 146, 147, 148, 149, 150, 151, 152, 153, 154, 155, 156, 157, 158, 159, 160, 161, 162, 163, 164, 165, 166, 167, 168, 169, 170, 171, 172, 173, 174, 175, 176, 177, 178, 179, 180, 181, 182, 183, 184, 185, 186, 187, 188, 189, 190, 191, 192, 193, 194, 195, 196, 197, 198, 199, 200, 201, 202, 203, 204, 205, 206, 207, 208, 209, 211, 212, 213, 214, 215, 216, 217, 218, 219, 220, 221, 222, 223, 224, 225, 226, 227, 228, 229, 230, 231, 232, 233, 234, 235, 236, 237, 238, 239, 240, 241, 242, 243, 244, 245, 246, 247, 248, 249, 250, 251, 252, 253, 254, 255, 256, 257, 258, 259, 260, 261, 262, 263, 264, 265, 266, 267, 268, 269, 270, 271, 272, 273, 274, 275, 276, 277, 278, 279, 280, 281, 282, 283, 284, 285, 286, 287, 288, 289, 290, 291, 292, 293, 294, 295, 296, 297, 298, 299, 300, 301, 302, 303, 304, 305, 306, 307, 308, 309, 310, 311, 312, 313, 314, 315, 316, 317, 318, 319, 320, 321, 322, 323, 324, 325, 326, 327, 328, 329, 330, 331, 332, 333, 334, 335, 336, 337, 338, 339, 340, 341, 342, 343, 344, 346, 347, 348, 349, 350, 351, 352, 353, 354, 355, 356, 357, 358, 359, 360, 361, 362, 363, 364, 365, 366, 367, 368, 369, 371, 372, 373, 374, 375, 376, 377, 378, 379, 380, 381, 382, 383, 384, 385, 386, 387, 388, 389, 390, 391, 392, 393, 394, 395, 396, 397, 398, 399, 400, 401, 402, 403, 404, 405, 406, 407, 408, 409, 410, 411, 412, 413, 414, 415, 416, 417, 418, 419, 420, 421, 422, 423, 424, 425, 426, 427, 428, 429, 430, 431, 432, 433, 434, 435, 436, 437, 438, 439, 440, 441, 442, 443, 444, 445, 446, 447, 448, 449, 450, 451, 452, 453, 454, 455, 456, 458, 459, 460, 461, 462, 463, 464, 465, 466, 467, 468, 469, 470, 471, 472, 473, 474, 475, 476, 477, 478, 479, 480, 481, 482, 483, 484, 485, 486, 487, 488, 489, 490, 491, 492, 493, ]
Packed Weights: [957, 948, 57, 85, 836, 736, 670, 309, 606, 607, 582, 159, 431, 394, 724, 995, 950, 545, 445, 269, 36, 28, 465, 319, 381, 892, 526, 561, 237, 24, 326, 137, 511, 999, 675, 182, 894, 797, 735, 907, 763, 790, 354, 981, 962, 162, 755, 716, 462, 531, 491, 925, 501, 832, 354, 883, 900, 462, 568, 921, 724, 487, 222, 325, 700, 167, 908, 269, 912, 310, 958, 707, 505, 518, 652, 588, 312, 208, 512, 935, 624, 76, 821, 726, 908, 192, 745, 59, 653, 274, 227, 876, 107, 523, 854, 245, 211, 881, 423, 717, 32, 363, 172, 673, 83, 955, 26, 730, 22, 256, 814, 158, 184, 692, 386, 44, 991, 152, 37, 345, 616, 743, 114, 338, 31, 449, 766, 740, 903, 756, 863, 706, 473, 226, 661, 317, 103, 448, 875, 128, 585, 393, 515, 144, 960, 260, 607, 420, 19, 558, 141, 57, 34, 162, 96, 636, 509, 984, 935, 995, 233, 445, 251, 592, 625, 801, 710, 257, 424, 527, 5, 36, 409, 112, 724, 241, 100, 182, 232, 218, 521, 465, 310, 642, 213, 907, 964, 729, 434, 512, 582, 52, 419, 526, 182, 94, 803, 367, 520, 922, 611, 290, 984, 373, 20, 686, 102, 306, 841, 673, 452, 411, 486, 209, 589, 74, 285, 373, 936, 77, 755, 193, 572, 392, 464, 754, 396, 122, 122, 81, 851, 641, 960, 693, 25, 660, 778, 724, 498, 358, 458, 799, 269, 527, 478, 955, 805, 933, 837, 297, 232, 489, 260, 428, 680, 919, 586, 818, 96, 357, 998, 147, 417, 67, 87, 896, 989, 649, 129, 297, 232, 671, 682, 439, 524, 113, 541, 950, 756, 97, 517, 716, 258, 895, 461, 704, 405, 996, 783, 574, 145, 442, 30, 596, 882, 181, 511, 483, 405, 711, 937, 706, 473, 962, 331, 746, 659, 762, 853, 225, 622, 403, 667, 978, 635, 12, 465, 712, 884, 651, 817, 18, 944, 730, 607, 906, 885, 101, 816, 768, 200, 745, 587, 192, 805, 138, 613, 435, 254, 567, 468, 205, 967, 73, 486, 838, 659, 755, 486, 675, 335, 267, 503, 28, 80, 754, 174, 751, 785, 405, 675, 788, 865, 135, 163, 382, 465, 295, 558, 967, 367, 538, 383, 443, 871, 309, 650, 484, 539, 915, 77, 825, 305, 647, 796, 654, 393, 841, 93, 634, 392, 531, 851, 798, 629, 309, 233, 458, 233, 278, 958, 112, 819, 380, 365, 319, 78, 458, 167, 443, 292, 895, 922, 442, 640, 930, 327, 100, 238, 190, 679, 374, 357, 796, 234, 809, 633, 401, 824, 343, 879, 926, 503, 690, 949, 743, 752, 870, 936, 754, 980, 292, 623, 671, 368, 396, 175, 958, 355, 477, 894, 187, 961, 128, 351, 360, 918, 884, 762, 437, 543, 237, 834, 390, 285, 638, 151, 317, 927, 96, 143, 205, 251, 421, 251, 343, 247, 241, 611, 337, 373, 768, 62, 145, 851, 430, 779, 133, 523, 846, ]
Time Consuming: 0.008001089096069336